
  32    1
  10

   0   0   9 2 3 4 5 6 9 11 12 13 
   9   1   5 31 29 20 10 7 
   9   1   9 27 26 25 22 21 19 17 15 14 
   8   2   5 28 23 19 16 8 
   6   2   6 27 23 21 20 14 10 
   9   3   8 30 25 24 22 20 19 16 15 
   4   3   7 28 25 22 21 19 15 14 
   1   2   7 27 26 24 22 21 18 17 
   7   2   4 29 20 18 16 
   9   3   4 26 25 22 19 
   2   2   4 26 20 19 18 
   2   2   3 25 19 18 
   5   2   3 23 20 19 
   3   3   2 24 18 
   6   2   2 23 18 
  10   1   1 21 
   1   3   1 20 
   5   1   1 32
   2   2   1 32
  10   3   1 32
   7   2   1 32
   9   2   1 32
   6   3   1 32
   3   1   1 32
  10   2   1 32
   2   1   1 32
  10   1   1 32
   1   3   1 32
   7   1   1 32
   9   3   1 32
   4   1   1 32
   0   0   0 
